28 28
22
3 3   9 25
3 4   19 24
3 5   22 23
3 6   13 19
3 7   16 21
3 8   19 16
3 9   13 10
3 10   13 0
3 11   25 17
3 16   19 0
3 17   25 0
3 21   16 0
3 23   22 0
4 3   12 25
4 4   9 21
4 5   0 23
4 8   9 13
4 13   4 0
4 23   0 0
5 6   4 22
5 9   4 13
5 13   8 0